% Generated by MiniZinc 2.9.3
% Solver library: /home/icwmmarijnisse/Pumpkin/minizinc/lib
% Command line invocation: minizinc --compile --fzn ./instance.fzn --ozn ./instance.ozn --solver pumpkin ../../../../benchmarks/models/tsp/instances/tsp.mzn ../../../../benchmarks/models/tsp/instances/TSP_N20_4.dzn 

predicate pumpkin_circuit(array [int] of var int: x);
array [1..20] of int: X_INTRODUCED_38_ = [0,807,520,274,841,3,290,744,306,858,602,594,676,502,887,153,458,552,496,354];
array [1..20] of int: X_INTRODUCED_40_ = [807,0,341,566,782,557,387,467,956,330,891,194,715,245,586,393,240,877,795,421];
array [1..20] of int: X_INTRODUCED_42_ = [520,341,0,45,326,763,485,723,936,831,391,396,680,812,841,668,156,508,988,38];
array [1..20] of int: X_INTRODUCED_44_ = [274,566,45,0,130,515,989,605,340,891,103,896,866,451,103,539,933,468,16,740];
array [1..20] of int: X_INTRODUCED_46_ = [841,782,326,130,0,148,420,892,671,994,159,77,481,801,993,272,347,639,710,408];
array [1..20] of int: X_INTRODUCED_48_ = [3,557,763,515,148,0,666,83,873,337,873,691,880,547,390,978,325,642,736,909];
array [1..20] of int: X_INTRODUCED_50_ = [290,387,485,989,420,666,0,778,500,894,555,37,633,71,241,647,701,944,295,233];
array [1..20] of int: X_INTRODUCED_52_ = [744,467,723,605,892,83,778,0,765,93,445,101,779,649,721,894,103,455,171,711];
array [1..20] of int: X_INTRODUCED_54_ = [306,956,936,340,671,873,500,765,0,307,926,30,48,333,816,58,301,368,384,442];
array [1..20] of int: X_INTRODUCED_56_ = [858,330,831,891,994,337,894,93,307,0,150,251,544,422,580,699,812,185,175,180];
array [1..20] of int: X_INTRODUCED_58_ = [602,891,391,103,159,873,555,445,926,150,0,81,625,892,392,635,700,247,510,935];
array [1..20] of int: X_INTRODUCED_60_ = [594,194,396,896,77,691,37,101,30,251,81,0,598,147,238,473,654,261,471,262];
array [1..20] of int: X_INTRODUCED_62_ = [676,715,680,866,481,880,633,779,48,544,625,598,0,683,10,921,824,477,923,295];
array [1..20] of int: X_INTRODUCED_64_ = [502,245,812,451,801,547,71,649,333,422,892,147,683,0,694,560,162,76,453,968];
array [1..20] of int: X_INTRODUCED_66_ = [887,586,841,103,993,390,241,721,816,580,392,238,10,694,0,354,602,307,655,986];
array [1..20] of int: X_INTRODUCED_68_ = [153,393,668,539,272,978,647,894,58,699,635,473,921,560,354,0,435,707,257,468];
array [1..20] of int: X_INTRODUCED_70_ = [458,240,156,933,347,325,701,103,301,812,700,654,824,162,602,435,0,866,310,204];
array [1..20] of int: X_INTRODUCED_72_ = [552,877,508,468,639,642,944,455,368,185,247,261,477,76,307,707,866,0,394,874];
array [1..20] of int: X_INTRODUCED_74_ = [496,795,988,16,710,736,295,171,384,175,510,471,923,453,655,257,310,394,0,495];
array [1..20] of int: X_INTRODUCED_76_ = [354,421,38,740,408,909,233,711,442,180,935,262,295,968,986,468,204,874,495,0];
array [1..21] of int: X_INTRODUCED_81_ = [1,-1,-1,-1,-1,-1,-1,-1,-1,-1,-1,-1,-1,-1,-1,-1,-1,-1,-1,-1,-1];
var 1..20: X_INTRODUCED_16_;
var 1..20: X_INTRODUCED_17_;
var 1..20: X_INTRODUCED_18_;
var 1..20: X_INTRODUCED_19_;
var 1..20: X_INTRODUCED_20_;
var 1..20: X_INTRODUCED_21_;
var 1..20: X_INTRODUCED_22_;
var 1..20: X_INTRODUCED_23_;
var 1..20: X_INTRODUCED_24_;
var 1..20: X_INTRODUCED_25_;
var 1..20: X_INTRODUCED_26_;
var 1..20: X_INTRODUCED_27_;
var 1..20: X_INTRODUCED_28_;
var 1..20: X_INTRODUCED_29_;
var 1..20: X_INTRODUCED_30_;
var 1..20: X_INTRODUCED_31_;
var 1..20: X_INTRODUCED_32_;
var 1..20: X_INTRODUCED_33_;
var 1..20: X_INTRODUCED_34_;
var 1..20: X_INTRODUCED_35_;
var 0..19169: Objective:: output_var:: is_defined_var;
var 0..887: X_INTRODUCED_39_ ::var_is_introduced :: is_defined_var;
var 0..956: X_INTRODUCED_41_ ::var_is_introduced :: is_defined_var;
var 0..988: X_INTRODUCED_43_ ::var_is_introduced :: is_defined_var;
var 0..989: X_INTRODUCED_45_ ::var_is_introduced :: is_defined_var;
var 0..994: X_INTRODUCED_47_ ::var_is_introduced :: is_defined_var;
var 0..978: X_INTRODUCED_49_ ::var_is_introduced :: is_defined_var;
var 0..989: X_INTRODUCED_51_ ::var_is_introduced :: is_defined_var;
var 0..894: X_INTRODUCED_53_ ::var_is_introduced :: is_defined_var;
var 0..956: X_INTRODUCED_55_ ::var_is_introduced :: is_defined_var;
var 0..994: X_INTRODUCED_57_ ::var_is_introduced :: is_defined_var;
var 0..935: X_INTRODUCED_59_ ::var_is_introduced :: is_defined_var;
var 0..896: X_INTRODUCED_61_ ::var_is_introduced :: is_defined_var;
var 0..923: X_INTRODUCED_63_ ::var_is_introduced :: is_defined_var;
var 0..968: X_INTRODUCED_65_ ::var_is_introduced :: is_defined_var;
var 0..993: X_INTRODUCED_67_ ::var_is_introduced :: is_defined_var;
var 0..978: X_INTRODUCED_69_ ::var_is_introduced :: is_defined_var;
var 0..933: X_INTRODUCED_71_ ::var_is_introduced :: is_defined_var;
var 0..944: X_INTRODUCED_73_ ::var_is_introduced :: is_defined_var;
var 0..988: X_INTRODUCED_75_ ::var_is_introduced :: is_defined_var;
var 0..986: X_INTRODUCED_77_ ::var_is_introduced :: is_defined_var;
array [1..20] of var int: Successor:: output_array([1..20]) = [X_INTRODUCED_16_,X_INTRODUCED_17_,X_INTRODUCED_18_,X_INTRODUCED_19_,X_INTRODUCED_20_,X_INTRODUCED_21_,X_INTRODUCED_22_,X_INTRODUCED_23_,X_INTRODUCED_24_,X_INTRODUCED_25_,X_INTRODUCED_26_,X_INTRODUCED_27_,X_INTRODUCED_28_,X_INTRODUCED_29_,X_INTRODUCED_30_,X_INTRODUCED_31_,X_INTRODUCED_32_,X_INTRODUCED_33_,X_INTRODUCED_34_,X_INTRODUCED_35_];
array [1..21] of var int: X_INTRODUCED_80_ ::var_is_introduced  = [Objective,X_INTRODUCED_39_,X_INTRODUCED_41_,X_INTRODUCED_43_,X_INTRODUCED_45_,X_INTRODUCED_47_,X_INTRODUCED_49_,X_INTRODUCED_51_,X_INTRODUCED_53_,X_INTRODUCED_55_,X_INTRODUCED_57_,X_INTRODUCED_59_,X_INTRODUCED_61_,X_INTRODUCED_63_,X_INTRODUCED_65_,X_INTRODUCED_67_,X_INTRODUCED_69_,X_INTRODUCED_71_,X_INTRODUCED_73_,X_INTRODUCED_75_,X_INTRODUCED_77_];
constraint pumpkin_circuit(Successor);
constraint array_int_element(X_INTRODUCED_16_,X_INTRODUCED_38_,X_INTRODUCED_39_):: defines_var(X_INTRODUCED_39_);
constraint array_int_element(X_INTRODUCED_17_,X_INTRODUCED_40_,X_INTRODUCED_41_):: defines_var(X_INTRODUCED_41_);
constraint array_int_element(X_INTRODUCED_18_,X_INTRODUCED_42_,X_INTRODUCED_43_):: defines_var(X_INTRODUCED_43_);
constraint array_int_element(X_INTRODUCED_19_,X_INTRODUCED_44_,X_INTRODUCED_45_):: defines_var(X_INTRODUCED_45_);
constraint array_int_element(X_INTRODUCED_20_,X_INTRODUCED_46_,X_INTRODUCED_47_):: defines_var(X_INTRODUCED_47_);
constraint array_int_element(X_INTRODUCED_21_,X_INTRODUCED_48_,X_INTRODUCED_49_):: defines_var(X_INTRODUCED_49_);
constraint array_int_element(X_INTRODUCED_22_,X_INTRODUCED_50_,X_INTRODUCED_51_):: defines_var(X_INTRODUCED_51_);
constraint array_int_element(X_INTRODUCED_23_,X_INTRODUCED_52_,X_INTRODUCED_53_):: defines_var(X_INTRODUCED_53_);
constraint array_int_element(X_INTRODUCED_24_,X_INTRODUCED_54_,X_INTRODUCED_55_):: defines_var(X_INTRODUCED_55_);
constraint array_int_element(X_INTRODUCED_25_,X_INTRODUCED_56_,X_INTRODUCED_57_):: defines_var(X_INTRODUCED_57_);
constraint array_int_element(X_INTRODUCED_26_,X_INTRODUCED_58_,X_INTRODUCED_59_):: defines_var(X_INTRODUCED_59_);
constraint array_int_element(X_INTRODUCED_27_,X_INTRODUCED_60_,X_INTRODUCED_61_):: defines_var(X_INTRODUCED_61_);
constraint array_int_element(X_INTRODUCED_28_,X_INTRODUCED_62_,X_INTRODUCED_63_):: defines_var(X_INTRODUCED_63_);
constraint array_int_element(X_INTRODUCED_29_,X_INTRODUCED_64_,X_INTRODUCED_65_):: defines_var(X_INTRODUCED_65_);
constraint array_int_element(X_INTRODUCED_30_,X_INTRODUCED_66_,X_INTRODUCED_67_):: defines_var(X_INTRODUCED_67_);
constraint array_int_element(X_INTRODUCED_31_,X_INTRODUCED_68_,X_INTRODUCED_69_):: defines_var(X_INTRODUCED_69_);
constraint array_int_element(X_INTRODUCED_32_,X_INTRODUCED_70_,X_INTRODUCED_71_):: defines_var(X_INTRODUCED_71_);
constraint array_int_element(X_INTRODUCED_33_,X_INTRODUCED_72_,X_INTRODUCED_73_):: defines_var(X_INTRODUCED_73_);
constraint array_int_element(X_INTRODUCED_34_,X_INTRODUCED_74_,X_INTRODUCED_75_):: defines_var(X_INTRODUCED_75_);
constraint array_int_element(X_INTRODUCED_35_,X_INTRODUCED_76_,X_INTRODUCED_77_):: defines_var(X_INTRODUCED_77_);
constraint int_lin_eq(X_INTRODUCED_81_,X_INTRODUCED_80_,0):: defines_var(Objective);
solve  minimize Objective;
